
 102   30
  10   10   10   10   10   10   10   10   10   10   10   10   10   10   10   10   10   10   10   10   10   10   10   10   10   10   10   10   10   10

   0   0   0   0   0   0   0   0   0   0   0   0   0   0   0   0   0   0   0   0   0   0   0   0   0   0   0   0   0   0   0  30 2 3 4 5 6 7 8 9 10 11 12 13 14 15 16 17 18 20 21 23 26 27 28 29 31 37 41 42 43 45 
   8   0   0   0   0   0   0   0   0   0   0   0   0   0   1   0   0   0   0   0   1   0   1   1   0   0   0   0   0   0   0  18 89 79 77 76 74 64 63 62 61 60 58 57 55 52 51 49 30 25 
  10   0   0   0   1   0   0   1   0   4   0   0   0   5   0   0   0   1   0   0   0   0   0   8   0   1   0   0   0   0   0  13 101 78 74 64 61 57 52 51 50 48 40 32 25 
   8   0   0   0   0   0   1   0   2   5   1   0   0   5   7   0   1   0   0   1   0   0   0   0   2   0   0   0   0   0   1  16 89 77 74 68 63 62 61 58 56 55 54 51 49 46 34 30 
   4   1   0   0   0   0   0   0   7   0   0   0   0   7   0   0   0   0   0   0   0   0   0   0   0   8   1   0   1   0   0  11 78 77 76 62 61 57 54 51 50 30 22 
   3   0   0   0   0   0  10   6   0   0   0   0   0   0   0   0   0   0   0   0   0   0   0   0   0   0   0   0   0   0   0  11 79 77 61 57 54 52 51 44 35 33 22 
   1   0   0   0   6   0   5   0   0   0   0   0   0   0   0   1   0   0   0   0   0   0   0   0   0   0   0   0   6   0   0  22 101 91 89 76 74 73 69 68 67 62 61 60 58 57 56 55 54 52 50 49 48 44 
   5   0   0   0   0   1   0   0   0   0   0   0   0   0   0   0   0   0   0  10   5   0   0   0   0   0   3   2   0   0   0  17 101 91 90 79 77 75 74 64 63 60 59 57 56 54 40 39 38 
   3   5   0   0   0   0   0   0   0   0   4   0   0   0   7   0   0   0   0   0   0   0   0   0   0   0   0   0   0   0   0  10 77 74 65 61 57 55 52 47 44 19 
  10   0   0   0   0   7   0   0   0   0   0   0   0   0   0   0   0   7   0   0   0   0   0   0   0   5   6   0   0   0   0  17 91 89 78 76 74 73 67 62 59 57 56 54 52 50 48 44 40 
   4   0   0   0   0   0   0   0   0   0   0   0   0   6   0   0   0   0   3   0   8   0   0   0   0   0   0   0   0   0   6  13 101 74 68 67 59 55 54 53 52 51 48 44 32 
   5   0   0   4   0   0   0   0   0   0  10   0   0   0   0   0   0   0   6   0   0   0   0   0   0   7   0   0   0   0   0  12 92 77 74 68 58 57 56 55 47 46 36 34 
   1   0   1   0   0   0   0   8   0   0   0   1   0   0   0   0   0   0   0   0   0   0   0   0   0   0   0   5   0   0   0  10 101 78 77 75 61 60 59 58 47 24 
   7   0   0   3   0   0   0   0   6   0   0   0   0   0   0   0   3   0   0   0   0   1   0   0   0   0   0   0   7   0   0  20 101 97 96 94 91 77 73 72 68 67 63 59 58 57 56 55 54 53 50 44 
   5   0   0   0   0   9   0   2   0   0   0   0   1   0   0   0   0   0   7   0   0   4   0   0   0   0   0   0   5   0   0  14 94 92 91 89 76 74 69 61 58 56 50 48 46 44 
   1   0   0   0   0   7   0   0   6   0   0   0   0   0   0   0   3   7   0   0  10   0   0   0   0   0   0   3   0   0   4  17 101 98 95 92 91 90 76 75 69 68 66 63 61 58 52 51 48 
   8   0   0   0   0   6   0   0   0   0   0   4   0   0   0   0   0   0   0   0   0   0   0   0   0   0   0   7   0   0   0  14 94 92 91 74 73 69 67 58 56 55 52 50 48 44 
   4   7   7   0   0   0   0   0   0   0   0   0   0   6   0   0   0   0   7   0   0   0   0   0   0   0   0   0   0   0   0  13 100 98 92 89 76 74 69 68 60 58 47 46 44 
   7   9   0   5   0   0   0   0   0   0   6   0   0   0   0  10   0   0   0   0   0   0   0   0   0   0   0   0   0   1   0   7 95 89 76 71 68 54 30 
   6   0   0   0   0   0   0   0   0   0   0   7   0   0   0   0   0   0   0   0   0   0   0   4   4   8   0   8   0   0   0  14 92 90 89 76 74 73 69 67 66 64 63 62 55 48 
   9   0   2   4   0   0   0   0   0   5   0   0   0   8   6   0   0   4   0   0   0   0   0   0   0   0   0   0   0   0   4  16 98 96 94 92 90 89 87 74 72 70 69 61 60 58 52 46 
   8   0   0   0   0   0   0   0   0   0   0   0   0   0   0   0   0   0   0   0   4   5   0   0   0   2   0   0   0   0   0  10 99 95 94 89 75 67 66 56 48 40 
   5   0   0   0   0   0   0   0   0   0   0   0   6   6   0   0   0   0   0   0   0   0   0   0   0   0   0   0   0   0   7  14 99 98 94 92 91 89 76 74 71 69 67 60 59 48 
   8   6   0   0   0   0   0   0   0   0   4   0   8   0   9   0   0   0   0   0   0   0   0   0   0   0   0   0   0   0   0   5 97 89 55 50 38 
   6   0   0   0   0   0   9   0   0   0   7   0   0   0   0   0  10   0   6   0   9   0  10   0   0   0   0   5   6   0   0  11 96 94 91 71 70 69 68 59 56 54 46 
   2   0   0   0   0   0   0   0   0   0   0   0   0   0   7   0   0   0   0   0   0   0   0   0   0   0   0   0   0   0   8  10 100 96 94 92 90 75 74 69 48 46 
   8   0   0   0   0   0   0   0   0   0   0   0   0   0   0   9   0   0   0   0   0   0   0   0   0   0   0   7   0   8   0  15 99 98 94 90 88 85 76 74 70 69 68 61 60 58 57 
   8   0   0   0   0   0   0   0   0   0   0   0   0   0   0   0   0   0   0   0   0   0   0   6   0   0   7   0   0   0   8  11 100 99 97 96 94 79 74 67 66 53 48 
   7   0   0   5   0   0   0   9   0   0   0   0   0   0   0   0   0   0   0   0   0   0   4   5   0   0   0   5   0   0   0  13 97 95 94 90 88 84 76 71 69 68 66 56 55 
   9   0   0   0   0   0   0   0   0   0   0   0   0   0   0   0   0   0   0   0   0   0   0   0   7   0   0   0   0   0   0   5 101 96 91 75 38 
   5   0   0   0   0   0   0   0   3   0   4   0   4   0   0   0   0   6   0   0   0   0   0   0   0   0   0   0   5   0   0  15 97 96 91 87 86 79 77 75 74 70 69 68 67 66 63 
   7   7   0   0   0   0   0   0   0   0   0   0   0   0   0   6   0   0   0   0   0   0   0   0   0   0   0   0   0   0   0  14 100 99 98 97 94 92 91 89 87 76 69 66 63 58 
   9   0   0   0   0   7   6   0   0   0   0   0   7   0   0   0   0   6   0   0   0   0   0   3   0   0   0   0   0   0   0   8 100 98 94 92 74 69 58 46 
   1   0   0   6   0   0   5   0   0   8   0   0   0   0   0   0   0   0   7   0   6   0   0   0   0   0   0   0   0   0   0   7 101 98 94 91 60 59 48 
   7   0   0   0   0   0   0   0   0   0   0   0   0  10   5   0   0   8   0   0   0   0   0   0   0   0   0   0   0   0   4  15 100 96 94 92 91 89 87 86 82 81 80 74 73 70 67 
   8   0   7   4   0   0   0   0   0   0   0   0   0   0   0   0   0   0   0   0   0   8   0   0   4   0   0   0   0   0   0  12 98 95 93 88 87 86 72 70 69 67 66 62 
   8   0   0   0   0   5   0   0   0   0   0   0   0   5   0   0   0   0   0   0   0   0   0   0   0   8   0   0   0   0   0  11 101 100 97 93 92 88 71 67 66 62 57 
   3   0   0   0   0   8   7   0   0   0   0   0   0   0   0   0   0   0   0   0   0   0   0   0   0   0   0   0   0   0   0   8 98 94 92 82 73 69 67 48 
  10   0   0   0   0   5   0   7   0   0   0   0   5   0   0   6   8   0   7   6   0   0   0   0   0   0   0   6   0   0   0  10 93 88 87 86 73 72 70 69 66 62 
   5   0   0   0   0   0   0   0   0   0   0   0   0   0   0   0   0   0   0   0   0   0   0   0   0   0   3   0   0   0   0   8 97 96 93 82 69 68 58 55 
   4   0   0   0   0  10   0   0   0   0   6   3   0   5   0   0   0   7   0   0   0   0   6   0   0   0   0   7   7   0   0   8 101 99 86 71 69 67 66 55 
   4   0   5   0   0   0   5   0   8   0   0   0   0   0   0   4   0   0   0   0   0   0   0   0   0   0   0   5   0   0   9  10 97 95 92 88 87 84 70 69 66 57 
   2   0   0   0   0   3   0   0   5   0   0   0   0   0   0   7   0   0   4   0   0   0   0   0   0   7   0   0   0   0   0  12 98 96 94 88 87 86 84 82 81 80 73 71 
   5   0   0   0   0  10   8   0   0   0   0   0   0   0   0   0   0   0   0   0   0   0   0   6   0   0   0   0   0   8   0  10 95 90 88 87 86 84 81 75 70 66 
   9   0   0   0   0   0   0   8   6   0   0   0   0   0   0   0   0   9   0   0   0   0   0   0   3   0   0   0   6   0   0   8 96 95 93 88 82 80 69 67 
   8   0   0   0   0   5   0   0   0   0   0   0   0   0   0   0   0   0   0   0   0   0   0   0   0   0   0   0   0   0   0   7 99 97 93 88 81 67 66 
   7   0   0   0   6   0   0   6   0   0   0   0   0   5   0   0   0   0   4   0   0   0   0   0   7   0   0   0   0   0   0   8 97 96 94 93 87 82 81 73 
   2   0   0   0   0   0   2   4   0   0   0   0   0   0   0   0   0   0   0   0   0   0   0   6   0   0   0   0   0   0   0   7 93 88 87 86 84 72 70 
   1   0   0   0   0   0   0   8   0   0   0   7   0   5   0   0   0   0   0   0   0   0   0   0   0   0   7   0   7   0   8   7 97 96 94 82 81 80 78 
   8   0   0   0   0   0   0   8   0   0   0   9   0   0   0   0   0   0   0   8   5   0   9   7   0   0   0   0   0   0   0   6 99 90 86 85 81 66 
   1   0   0   0   0   0   0   0   0   0   0   0   0   0   0   0   0   0   0   0   0   0   9   0   0   0   0   0   0   0   0   6 94 84 82 81 73 71 
   4   0   0   0   0   3   0   0   0   0   0   0   0   5   0   0   0   0   0   0   0   0   0   0   0   0   0   0   0   0   0   7 99 97 93 86 85 83 82 
   4   0   0   7   0   0   0   0   0   6   0   0   0   0   0   6   0   0   0   0   0   0   6   0   0   0   0   0   0   0   0   6 95 88 87 86 83 69 
  10   0   0   0   0   0   0   0   0   0   0   0   0   0   0  10   3   0   0   0   0   0   5   6   0   0   0   0   8   0   0   4 100 83 81 66 
   5   0  10   0   0   0   0   0   0   0   6   0   0   0   5   0   0   0   6   0   0   0   0   0   8   0   0   6   0   0   0   5 100 98 87 83 80 
  10   0   0   0   0   9   0   0   0   0   8   0   0   0   0   0   5   0   0   0   0   0   0  10   0   0   0   0   9   0   0   5 100 93 87 86 85 
   1   0   0   0   0   0   0   0   0   0   0   0   5   0   0   0   0   0   0   6   8   0   0   0   0   0   0   0   0   5   0   5 86 83 82 81 80 
  10   0  10   5   0   0   0   0   0   0   7   0   0   0   0   0   0   0   0   0   0   0   0   0   0   0   0   0   0   0   0   4 86 84 81 71 
   2   0   0   0   0   0   0   0   9   0   0   0   0   0   0   0   6   6   0   0   0   0   0   0   0   0   0   0   0   0   0   3 95 85 66 
   4   0   0   0   0   0   0   0   0   0   0   0   8   0   6   0   0   7   0   0   0   0   0   0   7   0   0  10   0   0   0   3 83 81 66 
   2   0   0   0   0   0   0   0   5   0   0   0   0   0   0   0   8   0   7   0   0   0   0   0   0   0   0   0   0   0   0   3 93 84 80 
   8   8   0   0   0   0   0   0   0   0   0   7   0   0   6   0   0   0   0   0   5   0   0  10   0   7  10   0   0   0   0   3 94 84 80 
   1   0   0   0   0   0   0   0   0   0   0   0   0   0   0   0   0   0   0   0   0   0   0   0   0   0   0   8   0   0   8   3 88 84 82 
   1   0   0   0   0   0   0   0   0   3   0   0   0   0   0   0   6   0   0   0   0   0   0   0   0   0   0   0   0   0   0   3 99 83 81 
  10   0   0   0   0   0   0   0   0   0   0   0   0   6   4   0   0   0   0   9   0   0   0   0   0   0   0   0   0   0   0   3 96 86 85 
   7   0   0   0   0   0   0   0   7  10   0   0   7   0   0   0   0   0   0   0   0   0   0   0   0   0   0   0   0   0   0   2 82 80 
   6   0   0   0   0   0   0   0   0   0   7   0   0   0   0   0   0   0   0   0   0   0   0   0   0   0   0   0   0   0   0   2 85 84 
   6   0   0   2   0   3   0   5   0   0   0   0   0   0   0   0   4   0   0   0   9   0   0   0   0   0   7   0   0   0   0   2 83 80 
   4   0   0   0   0   0   0   8   0   0   4   0   0   0   0   3   0   0   4   0   0   0   0   0   0   0   0   0   0   0   0   1 81 
   1   0   0   0   0   0   0   0   7   0   0   0   0   0   0   0   0   0   0   0   0   0   0   0   7   0   0   0   0   0   0   1 83 
   1   0   0   0   0   0   0   0   0   0   0   0   0   0   0   0   0   0   0   0   5   0   0   0   0   0   0   0   0   0   0   1 83 
   8   0   0   6   0   4   6   0   0   6   0   0   0   0   0   0   0   0   0   0   0   0   0   4   0   0   0   3   0   0   0   1 80 
   4   0   0   0   0   0   5   0   0   5   0   0   0   0   0   0   4   0   0   0   0   0   0   0   0   0   0   0   6   0   0   1 85 
   4   0   0   0   0   7   0   0   0   0   0   0   0   0   0   0   0   0   0   0   0   0   0   0   0   0   0   0   0   0   0   1 95 
  10   0   0   0   0   0   0   0   0   0   0   0   0   0   0   0   0   0   0   0   0   0   6   0   0   9   0   0   0   0   0   1 85 
   5   6   0   0   0   0   0   0   0   8   0   0   0   0   0   0   0   0   0   0   0   8   0   0   7   0   0   0   0   0   0   1 96 
   2   0   0   0   7   8   0   0   0   0   0   0   0   3   0   4   0   0   0   0   0   0   0   0   0   0   0   0   0   0   0   1 81 
   8   0   0   0   0   0   5   0   0   0   6   0   0   0   0   0   0   0   0   0   0   0   0   0   0   6   0   0   0   0   0   1 92 
   6   0   0   0   0   0   0   0   0   0   0   9   0   0   7   0   0   0   0   0   0   0   0   0   0   0   0   0   0   0   0   1 80 
  10   0   0   5   0   0   0   0   0   0   0   0   0   4   0   0   0   0   0   0   0   0   7   0   0   0   0   0   0   0   0   1 102
   1   0   0   0   0   4   0   0   0   0   0   0   0   0   0   0   0   0   0   8   0   0   0   0   0   0   0   0   0   0   0   1 102
   6   0   5   0   0   0   0   0   0   0   0   0   9   0   0   0   0   0   0   4   0   6   0   0   0   3   0   0   0   0   0   1 102
   6   0   0  10   0   0   0   0   4   0   0   0   0   0   0   0   0   0   0   0   0   0   0   0   0   5   0   0   0   0   0   1 102
   5   0   0   0   0   6   0   0   0   0   8   0   0   0   0   0   0   5   0   0   0   0   0   8   0   0   0   0   0   5   0   1 102
   5   0   0   0   0   0   0   0   0   0   0   0   0   0   0   0   0   0   0   0   0   0   0   0   0   7   0   0   0   0   0   1 102
   8   0   0   0   0   0   0   0   6   0   8   0   0   0   0   0   9   0   0   0   0   0   0   0   0   0   0   0   0   0   0   1 102
   9   0   0  10  10   0   9   0   0   0   0   0   0   0   0   0  10   0  10   0   0   7   6   0   0   8   0   0   0   0   0   1 102
   6   0   0   0   0   5   0   0   0   0   0   0   0   0   0   0   0   0   0   1   4  10   0   0   0   0   0   0   0   0   0   1 102
   2   5   0   0   0   0   0   0   0   0   0   0   0   0   0   0   0   0   0   0   0   0   3   0   0   0   0   8   0   0   0   1 102
   7   0   0   0   0   0   0   0   0   0   0   0   0   0   0   0  10   0   0   0   0   0   0   0   0   0   0   0   0   0   0   1 102
   8   0   0   0   0   0   0   0   0   0   0   0   0   0   0   0   0   0   0   0   0   0   0   0   0   0   0   0   0   0   0   1 102
   1   0   0   0   0   0   0   0   0   0   0   0   0   0   0   0   0   0   0   0   0   0   0   0   6   0   0   0   0   0   0   1 102
   4   0   0  10   0   0   0   0   0   0   0   0   0   7   8   0   0   0   6   0   5   0   0   0   0   0   0   0   0   0   0   1 102
   2   0   0   0   0   0   0   4   0   0   0   0   0   0   0   0   0   0   0   7   5   8   0   0   0   0   6   0   0   0   0   1 102
   1   6   0   0   0   0   0   0   0   0   0   9   0   0   0   0   0   0   0   0   7   4   0   0   0   0   0   0   5   8   0   1 102
   9   0   7   0   0   0   0   0   0   0   0   0   6   0   0   0   0   0   0   0   0   5   0   0  10   0   0   0   6   0   0   1 102
   9   0   0  10   0   0   7   0   0   0   0   0   0   0   0   0   0   0   0   0   0   0   0   0   0   0   0   0   0   0   0   1 102
  10   0   0   0   0   0   0   0   0   0   0   4   0   0   0   0   0   0   0   0   0   0   0   0   6   0   0   0   0   0   5   1 102
   3   0   0   0   0   0   0   0   5   0   0   0   0  10   0   0   0   5   0   0   0   0   0   0   0   0   0   0   0   0   0   1 102
   1   0   0   0   0   0   0   0  10   0   0   0   0   0   0   0   0   0   0   0   0   0   0   0   0   5  10   0   0   7   0   1 102
   3   0   0   0   0   0   0   0   0   0   0   0   0   0   0   0   0   0   0   0   0   0   0   0   0   0   0   7   0   0   0   1 102
   0   0   0   0   0   0   0   0   0   0   0   0   0   0   0   0   0   0   0   0   0   0   0   0   0   0   0   0   0   0   0   0 
